<instance format="XCSP3" type="CSP">
  <variables>
    <var id="x0"> 5 6 </var>
    <var id="x1"> 2 6 7 </var>
    <var id="x2"> 2 5 13 </var>
    <var id="x3"> 5..7 </var>
    <var id="x4"> 5 7 12 </var>
    <var id="x5"> 2 6 7 13 </var>
    <var id="x6"> 5 7 10 13 </var>
    <var id="x7"> 0 7 9 11 </var>
    <var id="x8"> 5 10 </var>
    <var id="x9"> 0 7 9 </var>
    <var id="x10"> 0 7 10 </var>
    <var id="x11"> 0 5 9 12 </var>
    <var id="x12"> 5 7 10 11 </var>
    <var id="x13"> 5 7 9 </var>
    <var id="x14"> 3 5 11 14 </var>
    <var id="x15"> 5 9 11 13 </var>
    <var id="x16"> 3 5 14 </var>
    <var id="x17"> 5 7 11 </var>
    <var id="x18"> 3 5 7 9 11 </var>
    <var id="x19"> 7 13 14 </var>
    <var id="x20"> 3 5 9 </var>
    <var id="x21"> 4 8 11 14 </var>
    <var id="x22"> 1 8 11 13 </var>
    <var id="x23"> 1 4 </var>
    <var id="x24"> 1 13 14 </var>
    <var id="x25"> 4 8 12 </var>
    <var id="x26"> 1 8 11 13 </var>
    <var id="x27"> 4 8 11 13 </var>
    <var id="x28"> 11 </var>
    <var id="x29"> 0 1 9..11 </var>
    <var id="x30"> 1 2 10 </var>
    <var id="x31"> 0..2 7 9 </var>
    <var id="x32"> 0 2 11 </var>
    <var id="x33"> 0 2 7 10 11 </var>
    <var id="x34"> 0..2 7 10 </var>
    <var id="x35"> 4 5 8 11 14 </var>
    <var id="x36"> 2 9 11 14 </var>
    <var id="x37"> 2 5 14 </var>
    <var id="x38"> 2 4 5 8 11 </var>
    <var id="x39"> 2 4 5 8 9 </var>
    <var id="x40"> 2 8 11 </var>
    <var id="x41"> 2 5 9 14 </var>
    <var id="x42"> 0 2 6 9 </var>
    <var id="x43"> 0 2 8 </var>
    <var id="x44"> 0 3 6 </var>
    <var id="x45"> 0 2 8 9 </var>
    <var id="x46"> 2 3 8 9 </var>
    <var id="x47"> 8 13 </var>
    <var id="x48"> 2 6 9 13 </var>
    <var id="x49"> 1..3 5 </var>
    <var id="x50"> 2 5 13 </var>
    <var id="x51"> 1 3 5 7 9 </var>
    <var id="x52"> 1 2 7 13 </var>
    <var id="x53"> 2 5 9 </var>
    <var id="x54"> 1 2 7 13 </var>
    <var id="x55"> 2 5 7 9 13 </var>
    <var id="x56"> 3 5 6 11 </var>
    <var id="x57"> 0 6 7 9 </var>
    <var id="x58"> 0 5 11 </var>
    <var id="x59"> 0 5 7 11 </var>
    <var id="x60"> 0 3 5..7 11 </var>
    <var as="x18" id="x61"/>
    <var id="x62"> 6 7 11 </var>
    <var id="x63"> 0 5 8 11 </var>
    <var id="x64"> 2 5 6 </var>
    <var id="x65"> 0 2 4 5 8 11 </var>
    <var id="x66"> 0 2 5 7 8 11 </var>
    <var id="x67"> 0 4..7 11 </var>
    <var id="x68"> 5 7 11 </var>
    <var id="x69"> 2 4 5 8 </var>
    <var id="x70"> 2 5..7 </var>
    <var id="x71"> 4 6 8 11 14 </var>
    <var id="x72"> 0 8 11 </var>
    <var id="x73"> 2 6 14 </var>
    <var id="x74"> 0 2 4 6 </var>
    <var id="x75"> 0 2 4 8 11 </var>
    <var id="x76"> 0 4 6 11 </var>
    <var id="x77"> 0 2 8 14 </var>
    <var id="x78"> 1 5 10 </var>
    <var id="x79"> 2 6 7 </var>
    <var id="x80"> 4..7 </var>
    <var id="x81"> 1 5 7 </var>
    <var id="x82"> 2 5 </var>
    <var id="x83"> 1 2 6 7 </var>
    <var id="x84"> 4 5 7 10 </var>
    <var id="x85"> 0 5 8 </var>
    <var id="x86"> 0 2 7 14 </var>
    <var id="x87"> 0 2 5 7 8 </var>
    <var id="x88"> 5 7 </var>
    <var id="x89"> 0 2 7 14 </var>
    <var id="x90"> 2 4 5 8 </var>
    <var id="x91"> 2 7 8 </var>
    <var id="x92"> 1 5 8 10 13 </var>
    <var id="x93"> 2 6 </var>
    <var id="x94"> 1 2 6 </var>
    <var id="x95"> 1 2 10 13 </var>
    <var id="x96"> 2 5 8 </var>
    <var id="x97"> 5 8 10 13 </var>
    <var id="x98"> 2 5 6 13 </var>
    <var id="x99"> 0 1 </var>
    <var id="x100"> 0 5 8 11 </var>
    <var id="x101"> 0 3 5 11 </var>
    <var id="x102"> 0 5 8 14 </var>
    <var id="x103"> 3 5 8 </var>
    <var id="x104"> 5 8 11 </var>
    <var id="x105"> 5 14 </var>
  </variables>
  <constraints>
    <group>
      <allDifferent> %... </allDifferent>
      <args> x0 x1 x2 x3 x4 x5 x6 </args>
      <args> x7 x8 x9 x10 x11 x12 x13 </args>
      <args> x14 x15 x16 x17 x18 x19 x20 </args>
      <args> x21 x22 x23 x24 x25 x26 x27 </args>
      <args> x28 x29 x30 x31 x32 x33 x34 </args>
      <args> x35 x36 x37 x38 x39 x40 x41 </args>
      <args> x42 x43 x44 x45 x46 x47 x48 </args>
      <args> x49 x50 x51 x52 x53 x54 x55 </args>
      <args> x56 x57 x58 x59 x60 x61 x62 </args>
      <args> x63 x64 x65 x66 x67 x68 x69 x70 </args>
      <args> x71 x72 x73 x74 x75 x76 x77 </args>
      <args> x78 x79 x80 x81 x82 x83 x84 </args>
      <args> x85 x86 x87 x88 x89 x90 x91 </args>
      <args> x92 x93 x94 x95 x96 x97 x98 </args>
      <args> x99 x100 x101 x102 x103 x104 x105 </args>
      <args> x0 x14 x21 x28 x35 x56 x71 </args>
      <args> x15 x22 x29 x63 x72 x78 x85 x92 </args>
      <args> x1 x7 x36 x42 x79 x86 x93 </args>
      <args> x8 x16 x30 x37 x49 x64 x73 </args>
      <args> x9 x23 x31 x57 x74 x94 x99 </args>
      <args> x2 x32 x38 x50 x58 x65 x75 </args>
      <args> x17 x33 x43 x59 x66 x87 x100 </args>
      <args> x3 x44 x60 x67 x76 x80 x101 </args>
      <args> x4 x18 x51 x61 x68 x81 x88 </args>
      <args> x10 x19 x24 x34 x52 x89 x95 </args>
      <args> x11 x45 x53 x77 x82 x96 x102 </args>
      <args> x20 x25 x39 x46 x69 x90 x103 </args>
      <args> x5 x26 x40 x54 x62 x83 x91 </args>
      <args> x6 x12 x27 x47 x84 x97 x104 </args>
      <args> x13 x41 x48 x55 x70 x98 x105 </args>
    </group>
  </constraints>
</instance>

